16
0 3 1
0 8 1
0 10 1
0 12 1
1 2 1
1 7 1
1 13 1
2 6 1
2 8 1
2 13 1
2 15 1
3 2 1
4 7 1
4 15 1
6 3 1
6 5 1
7 1 1
7 4 1
7 8 1
7 14 1
8 0 1
8 3 1
9 14 1
10 5 1
10 12 1
11 1 1
11 4 1
12 3 1
12 14 1
13 7 1
14 0 1
15 1 1
15 2 1
15 7 1
15 10 1
15 13 1
